p cnf 100 40
x -1 2 5 -6 -7 9 -12 13 15 -16 17 -19 24 25 -27 31 34 -37 -38 39 40 -41 -43 44 45 -46 -48 49 50 53 55 -57 -58 -59 61 -63 -64 -66 -67 -68 -69 -70 71 -72 73 77 -81 89 90 -91 95 97 -98 99 -100 0
x 1 -4 7 9 13 14 -17 18 -19 -22 -26 -27 -28 29 -34 36 37 -39 -41 -42 44 45 49 -50 -51 52 53 -54 -56 57 -58 60 61 62 -66 69 -70 73 -74 78 79 80 -81 83 87 88 89 -90 -94 0
x -2 4 6 -7 -8 9 12 13 16 -17 18 19 20 22 -23 -24 -27 28 -29 32 34 -35 -36 -39 -43 44 -45 46 47 -48 -49 -50 51 54 55 56 -57 -60 -61 66 -70 73 -74 75 -76 -77 78 79 -81 82 83 -88 -89 -90 -91 94 95 -97 98 0
x -2 5 6 7 10 -14 -15 -20 -21 -24 -27 -28 -33 -35 38 39 40 -45 47 -51 -54 55 -58 61 -62 -63 64 65 66 67 -69 70 71 72 73 -75 -76 78 79 80 81 82 86 90 92 93 -95 -96 97 -98 -99 100 0
x -1 -5 6 8 -10 -11 12 -14 -15 17 21 22 26 30 31 -34 -35 -39 -42 44 -47 -48 -49 51 52 -54 57 -62 -64 66 69 70 -73 -74 76 81 -84 -85 86 -88 89 92 94 95 98 -100 0
x -5 6 -13 -14 16 19 25 -26 27 28 29 -30 32 -33 34 -35 38 -41 -42 -45 -46 -47 49 50 -53 54 66 -69 74 -75 -81 83 87 89 90 -92 -95 99 -100 0
x 1 -4 -11 -12 -17 -20 -21 22 23 -24 -30 32 -33 34 37 38 40 42 44 45 -46 -48 49 -52 53 -54 -57 -63 -69 70 -71 73 -77 80 81 82 83 -84 87 88 89 91 -93 94 95 0
x -5 7 8 -9 -12 -13 14 16 -17 22 -23 25 -26 31 -32 -35 -36 -40 -43 46 -47 -49 51 52 53 -54 -55 -57 -58 -59 -60 -61 -66 -70 -72 -77 -78 -80 81 84 88 -91 -93 96 98 99 0
x -3 -4 6 -7 -8 10 11 -13 14 -15 -16 18 -19 20 -22 -24 -26 27 -28 29 -31 -32 -33 -34 -36 37 -40 41 -43 -44 46 -55 -56 57 60 -61 62 64 65 66 69 -72 73 -75 76 -77 -80 81 83 85 -86 89 -90 -92 -95 -96 97 99 100 0
x 1 -3 -11 12 14 15 -16 18 -19 27 -30 37 39 -40 44 -48 -49 -51 53 54 57 60 61 62 -64 65 -70 -74 76 -77 -78 -79 -81 -82 84 85 -89 -91 -93 -96 97 -100 0
x 2 -8 -9 -10 -14 16 18 21 -24 -25 26 31 -32 -37 41 -42 47 51 54 -57 58 -59 60 -68 71 73 74 -76 -77 -78 -80 85 87 88 91 93 -97 98 0
x -4 7 -9 -11 -12 -13 -14 15 16 -17 -19 20 -24 -25 -27 28 29 -30 -31 -32 36 38 -39 43 -44 -45 46 -50 51 -53 54 -55 -60 -61 64 65 -66 -67 68 69 70 71 -72 -74 75 -76 -79 81 -82 -83 84 85 -86 91 92 -93 -95 -98 -100 0
x -4 7 8 -9 10 11 14 -15 -16 19 22 -24 25 26 28 29 -32 33 -34 -35 36 -37 38 39 40 -42 43 44 45 46 -47 52 55 57 59 -60 -61 63 -65 70 72 -73 -74 -77 78 -80 82 -83 85 -86 88 -89 91 98 -99 0
x 1 2 6 7 8 9 -12 15 17 -21 -22 -26 -27 -32 -33 -36 -37 39 -41 43 -45 46 47 50 51 -55 -60 -62 -65 -66 68 70 71 -72 73 -75 -79 82 83 -84 86 -87 88 -90 -92 -93 94 -95 -96 -97 -100 0
x -2 -5 7 8 -10 -11 14 -17 20 -22 -23 -25 31 34 -38 40 41 44 -46 50 -54 -56 -57 61 66 72 -75 -77 78 80 -82 -83 84 -86 89 90 -91 -92 0
x 2 -3 -5 8 9 12 -13 -15 21 23 26 -27 29 30 31 35 -38 -39 42 -43 -45 -46 49 -51 -52 54 -56 57 -59 -60 61 62 -63 66 72 73 -74 -77 -80 83 87 -91 94 96 -98 99 0
x -5 7 10 11 16 -18 -19 20 -22 24 28 29 30 -33 35 -37 -39 -42 -44 46 -47 48 -49 52 53 54 55 -63 64 67 69 -73 74 75 81 83 -86 87 -88 -90 92 -93 -94 95 -96 98 99 0
x 2 -6 7 -9 -12 13 16 -17 18 20 21 22 -25 26 -28 -29 30 -32 -33 -35 38 39 -42 -44 45 -46 -47 49 51 52 -53 56 -57 -58 -59 62 63 65 66 -67 69 -70 72 73 -76 82 -83 -86 88 95 96 -98 0
x 3 -4 5 7 -8 -10 -11 16 -19 20 24 27 -28 32 34 35 -36 37 -38 -40 41 42 43 -44 -46 48 -50 -52 53 54 55 -58 -66 68 -69 -70 74 76 78 -80 -81 82 -84 -86 -87 -89 90 -93 -94 -99 0
x 1 -2 -3 5 -11 -12 -15 -16 17 -19 21 23 -24 -25 28 -29 31 -32 34 36 -38 -44 -48 -51 52 -53 54 -57 59 60 -63 65 -67 -68 71 72 73 -74 -76 79 80 81 83 84 87 91 -98 99 -100 0
x 2 -4 6 7 -13 17 -20 22 -25 -27 -28 31 38 39 -44 45 -46 -47 48 49 -50 -52 53 -54 -55 56 58 -59 -60 61 -64 65 -66 -69 -71 -73 -74 77 78 79 80 81 83 84 -88 -92 93 -95 96 -97 98 -99 100 0
x 5 -13 14 -15 -16 -18 -19 -20 -21 22 -24 31 33 -35 38 -39 43 46 -47 -48 -49 -51 56 -57 -58 -62 63 64 -66 -67 68 -71 -72 -73 75 -76 -80 -81 -84 87 -88 -89 -91 -93 94 95 97 -99 0
x 3 5 8 -9 -12 18 20 -21 -23 28 -30 -31 33 -34 35 -36 -37 -41 42 -50 51 -53 -54 -60 61 -64 -67 77 79 80 82 83 85 -86 -93 94 -97 98 99 -100 0
x -2 -5 6 -14 -18 -19 21 -22 23 -24 -27 -28 29 -33 -35 38 42 43 49 -50 51 52 54 -56 -57 -61 62 -66 -68 -69 -70 -71 77 78 -79 82 83 87 -88 -90 92 -93 95 96 -99 100 0
x 1 4 5 6 -12 13 15 -16 -21 25 -26 -29 -31 36 -38 -40 41 43 44 46 49 -51 53 -54 55 56 -57 -58 60 -62 -63 65 67 69 -70 73 75 -78 -79 80 82 -85 90 92 96 98 -99 0
x -2 4 -9 -10 12 14 17 -18 23 -24 -27 -31 32 33 -34 -35 39 -41 43 -44 -47 -48 -49 -52 53 -55 56 -58 -64 67 69 -70 71 72 -73 -74 -75 76 79 81 82 -83 -87 89 90 -91 93 -94 -97 98 0
x 2 -10 -11 -12 13 -15 22 -23 25 27 28 30 -32 33 34 -36 -40 41 42 -43 -45 -46 -49 -50 53 -56 57 58 59 -62 -64 67 69 -70 -74 -76 77 81 -82 -83 -89 93 -94 96 -97 99 0
x 1 2 -3 4 -5 6 7 -8 -9 11 12 17 18 -19 20 -21 23 25 26 27 29 38 -41 -43 48 -50 -51 52 54 56 -65 66 -67 68 70 -79 81 83 -84 -85 86 87 90 -91 92 94 95 -96 -97 0
x 3 -6 9 10 -14 -16 -18 19 -23 -25 -26 27 -30 -31 36 49 53 55 -56 58 -60 -61 -63 64 65 68 -69 70 -71 -75 -78 79 -85 -87 90 91 -95 96 98 99 0
x -2 3 4 5 7 -8 -10 -11 -13 -18 -19 20 -22 23 -24 -25 -26 27 29 -30 -33 -34 -36 -39 41 44 47 50 -51 -53 55 56 -57 59 60 64 -66 -67 -68 -69 -72 77 80 82 85 87 88 89 93 97 100 0
x -2 -5 -7 12 13 14 15 17 19 22 25 -26 -31 -35 37 38 39 40 43 44 45 -46 49 50 52 -54 -55 -57 58 -59 -62 63 64 65 -67 -69 70 -74 76 -77 -78 -79 83 84 -85 87 -89 90 -91 99 100 0
x -1 2 4 -9 -11 14 -16 -17 20 23 -25 -27 -28 29 30 32 35 -36 37 -39 41 -42 -43 44 -46 47 -49 -51 -52 55 56 -59 61 -64 65 67 68 70 -73 -74 78 82 85 -88 -91 -94 95 -97 -98 -100 0
x 3 5 -6 -7 10 12 -15 -18 21 22 -24 25 27 -28 -31 32 33 -37 -41 43 -44 -47 -48 -51 52 53 54 55 -56 60 62 65 -66 -69 71 -73 75 -78 83 -84 89 91 94 97 -98 100 0
x 1 2 -5 -6 9 10 -13 -18 -21 -22 -30 31 -32 -34 35 -38 -40 41 -42 -44 -46 -55 57 -62 -63 -68 69 74 76 -78 81 83 88 -89 -90 -94 -96 -97 100 0
x 1 -12 13 -16 -18 21 -22 23 -26 -28 31 -37 39 40 44 45 -46 48 -49 50 51 -56 -59 62 65 -67 70 71 72 -73 75 -80 -82 -83 -87 89 -90 -91 -92 -93 -94 96 -98 -99 0
x -10 -12 17 20 21 22 27 -30 33 -35 37 38 -39 -40 -42 -44 -45 46 48 49 53 -55 -58 60 -63 -66 67 68 -71 76 -78 -79 81 82 -84 -86 87 88 90 -93 94 -96 0
x 3 6 -7 9 -14 15 -16 17 -21 -22 24 28 -29 31 -32 -33 34 35 36 39 40 42 43 44 47 53 -54 -58 60 61 -63 66 -67 68 69 -70 77 -81 -83 -84 89 -92 93 94 -95 96 -98 -99 -100 0
x 1 -3 -8 -9 10 -11 12 13 -14 15 16 -17 18 -19 -21 -22 -23 25 26 27 -29 30 31 -33 -34 36 -38 -44 48 49 54 56 58 61 -62 -65 66 -68 69 -70 -71 72 -73 -75 78 -79 -80 82 -84 85 -86 88 -89 -90 91 92 93 -95 -96 -98 -99 0
x 2 -4 6 9 -15 17 -19 23 -24 25 26 -29 30 -33 36 -37 38 -40 41 -43 -47 -48 -52 -53 -54 -55 -57 -61 -63 66 -68 72 73 77 -79 -80 81 82 83 -84 -85 -87 88 89 90 -91 94 95 0
x 1 -2 -3 4 -8 -12 13 14 -17 18 25 -26 27 -34 -35 -37 39 40 -42 44 46 -47 49 51 52 -54 55 -57 60 -64 65 70 71 -72 73 74 76 -78 -79 -80 81 83 -85 86 -88 91 92 93 -94 -95 96 0
g -30